33
1 0 43
2 0 39
2 1 2
3 0 21
3 1 17
3 2 20
4 0 43
4 1 15
4 2 12
4 3 5
5 0 10
5 1 24
5 2 22
5 3 5
5 4 16
6 0 13
6 1 33
6 2 33
6 3 9
6 4 23
6 5 34
7 0 43
7 1 28
7 2 46
7 3 46
7 4 11
7 5 38
7 6 25
8 0 8
8 1 22
8 2 37
8 3 35
8 4 25
8 5 34
8 6 26
8 7 28
9 0 29
9 1 42
9 2 8
9 3 21
9 4 18
9 5 1
9 6 13
9 7 8
9 8 20
10 0 38
10 1 22
10 2 4
10 3 36
10 4 37
10 5 25
10 6 19
10 7 32
10 8 2
10 9 38
11 0 47
11 1 12
11 2 28
11 3 38
11 4 44
11 5 39
11 6 37
11 7 44
11 8 1
11 9 24
11 10 47
12 0 12
12 1 6
12 2 15
12 3 43
12 4 6
12 5 17
12 6 31
12 7 16
12 8 24
12 9 2
12 10 8
12 11 19
13 0 16
13 1 15
13 2 18
13 3 31
13 4 40
13 5 31
13 6 16
13 7 42
13 8 9
13 9 32
13 10 19
13 11 25
13 12 22
14 0 47
14 1 41
14 2 26
14 3 4
14 4 7
14 5 41
14 6 28
14 7 6
14 8 26
14 9 5
14 10 3
14 11 3
14 12 15
14 13 47
15 0 18
15 1 44
15 2 17
15 3 25
15 4 34
15 5 1
15 6 34
15 7 35
15 8 32
15 9 22
15 10 29
15 11 34
15 12 37
15 13 21
15 14 16
16 0 31
16 1 6
16 2 42
16 3 40
16 4 43
16 5 47
16 6 31
16 7 10
16 8 35
16 9 27
16 10 38
16 11 28
16 12 30
16 13 8
16 14 26
16 15 36
17 0 29
17 1 19
17 2 33
17 3 31
17 4 2
17 5 10
17 6 36
17 7 38
17 8 25
17 9 38
17 10 10
17 11 47
17 12 15
17 13 45
17 14 18
17 15 25
17 16 38
18 0 45
18 1 7
18 2 47
18 3 29
18 4 24
18 5 6
18 6 7
18 7 47
18 8 4
18 9 12
18 10 20
18 11 15
18 12 27
18 13 3
18 14 19
18 15 28
18 16 26
18 17 32
19 0 44
19 1 30
19 2 1
19 3 30
19 4 44
19 5 25
19 6 36
19 7 4
19 8 46
19 9 28
19 10 28
19 11 26
19 12 11
19 13 44
19 14 5
19 15 39
19 16 22
19 17 16
19 18 40
20 0 28
20 1 37
20 2 43
20 3 33
20 4 20
20 5 40
20 6 43
20 7 10
20 8 28
20 9 23
20 10 30
20 11 7
20 12 5
20 13 38
20 14 13
20 15 13
20 16 11
20 17 20
20 18 9
20 19 10
21 0 44
21 1 19
21 2 35
21 3 7
21 4 41
21 5 45
21 6 47
21 7 19
21 8 37
21 9 46
21 10 38
21 11 11
21 12 24
21 13 1
21 14 41
21 15 22
21 16 42
21 17 14
21 18 10
21 19 37
21 20 20
22 0 39
22 1 30
22 2 38
22 3 15
22 4 30
22 5 29
22 6 4
22 7 10
22 8 39
22 9 20
22 10 42
22 11 47
22 12 45
22 13 16
22 14 20
22 15 17
22 16 43
22 17 25
22 18 26
22 19 34
22 20 5
22 21 35
23 0 25
23 1 11
23 2 2
23 3 45
23 4 5
23 5 26
23 6 9
23 7 32
23 8 45
23 9 33
23 10 4
23 11 20
23 12 28
23 13 17
23 14 35
23 15 30
23 16 40
23 17 4
23 18 46
23 19 9
23 20 37
23 21 34
23 22 12
24 0 45
24 1 32
24 2 33
24 3 8
24 4 15
24 5 12
24 6 43
24 7 22
24 8 28
24 9 19
24 10 37
24 11 19
24 12 31
24 13 7
24 14 13
24 15 45
24 16 7
24 17 21
24 18 5
24 19 38
24 20 17
24 21 8
24 22 30
24 23 26
25 0 17
25 1 15
25 2 38
25 3 9
25 4 7
25 5 13
25 6 15
25 7 4
25 8 38
25 9 43
25 10 46
25 11 39
25 12 45
25 13 20
25 14 40
25 15 37
25 16 5
25 17 22
25 18 22
25 19 11
25 20 21
25 21 5
25 22 24
25 23 9
25 24 21
26 0 12
26 1 24
26 2 31
26 3 47
26 4 46
26 5 29
26 6 33
26 7 22
26 8 36
26 9 21
26 10 23
26 11 15
26 12 14
26 13 18
26 14 22
26 15 21
26 16 42
26 17 13
26 18 8
26 19 28
26 20 15
26 21 39
26 22 8
26 23 1
26 24 23
26 25 25
27 0 18
27 1 27
27 2 29
27 3 46
27 4 43
27 5 47
27 6 34
27 7 30
27 8 27
27 9 37
27 10 18
27 11 17
27 12 10
27 13 43
27 14 7
27 15 37
27 16 26
27 17 35
27 18 22
27 19 32
27 20 41
27 21 20
27 22 18
27 23 17
27 24 37
27 25 30
27 26 32
28 0 32
28 1 6
28 2 34
28 3 20
28 4 35
28 5 27
28 6 28
28 7 29
28 8 17
28 9 30
28 10 30
28 11 39
28 12 33
28 13 41
28 14 29
28 15 37
28 16 18
28 17 32
28 18 31
28 19 15
28 20 4
28 21 7
28 22 9
28 23 14
28 24 33
28 25 19
28 26 44
28 27 13
29 0 17
29 1 38
29 2 10
29 3 42
29 4 19
29 5 40
29 6 42
29 7 34
29 8 11
29 9 25
29 10 3
29 11 22
29 12 41
29 13 24
29 14 3
29 15 9
29 16 5
29 17 22
29 18 31
29 19 40
29 20 4
29 21 21
29 22 14
29 23 3
29 24 31
29 25 4
29 26 33
29 27 16
29 28 15
30 0 40
30 1 20
30 2 35
30 3 16
30 4 43
30 5 3
30 6 10
30 7 38
30 8 15
30 9 10
30 10 17
30 11 45
30 12 9
30 13 10
30 14 7
30 15 46
30 16 26
30 17 30
30 18 16
30 19 3
30 20 44
30 21 38
30 22 31
30 23 29
30 24 30
30 25 33
30 26 18
30 27 26
30 28 19
30 29 16
31 0 12
31 1 25
31 2 44
31 3 15
31 4 22
31 5 2
31 6 33
31 7 2
31 8 36
31 9 11
31 10 21
31 11 43
31 12 6
31 13 21
31 14 37
31 15 29
31 16 17
31 17 3
31 18 35
31 19 2
31 20 38
31 21 13
31 22 39
31 23 25
31 24 37
31 25 17
31 26 23
31 27 33
31 28 26
31 29 11
31 30 29
32 0 40
32 1 5
32 2 46
32 3 22
32 4 31
32 5 30
32 6 26
32 7 30
32 8 37
32 9 41
32 10 4
32 11 12
32 12 25
32 13 28
32 14 22
32 15 6
32 16 38
32 17 36
32 18 2
32 19 10
32 20 39
32 21 15
32 22 25
32 23 30
32 24 17
32 25 24
32 26 32
32 27 17
32 28 32
32 29 16
32 30 8
32 31 36
